HUN,8,6,401
2,26,1,26,0,19,4,4,3,8,5,24
0,24,1,8,5,11,3,19,4,26,2,12
3,20,4,9,1,10,5,21,2,25,0,9
5,4,2,16,0,2,1,8,4,15,3,21
0,27,5,2,3,27,2,18,4,3,1,19
2,17,1,24,4,9,5,16,0,23,3,15
3,19,1,14,5,2,2,29,0,21,4,21
4,13,1,14,0,30,2,2,5,26,3,22
